% seed = 0

mint = 39;
% maxt = 130;

nActs = 62;
dur = [0,2,1,3,2,2,1,1,1,1,2,3,1,4,1,2,2,3,1,3,1,1,2,1,2,4,2,3,1,1,2,1,1,3,4,2,3,1,3,4,3,2,1,3,4,1,3,2,1,1,3,2,1,2,3,3,3,5,2,3,4,0];

nSkills = 9;
sreq = [| 0,0,0,0,0,0,0,0,0,
	| 0,0,0,1,0,0,0,0,1,
	| 0,1,0,0,0,0,1,0,0,
	| 0,0,0,0,0,0,1,0,1,
	| 0,0,0,0,1,0,0,0,0,
	| 0,0,0,0,0,0,0,0,1,
	| 0,1,0,0,0,0,0,0,0,
	| 0,0,1,0,0,0,0,0,0,
	| 0,1,1,0,0,0,0,0,0,
	| 0,0,1,0,0,0,0,0,1,
	| 0,0,1,0,0,0,0,0,0,
	| 0,1,1,0,0,0,0,0,0,
	| 0,0,0,0,1,0,0,1,0,
	| 0,0,0,0,0,0,0,1,0,
	| 0,2,0,0,0,0,0,0,0,
	| 0,0,0,1,0,0,0,0,0,
	| 0,0,0,0,0,0,0,0,1,
	| 0,0,0,0,0,0,1,1,0,
	| 0,0,0,0,1,0,0,0,0,
	| 0,0,0,0,1,0,0,0,1,
	| 0,0,0,0,0,2,0,0,0,
	| 0,0,0,0,0,0,0,1,0,
	| 0,0,0,0,0,0,0,0,1,
	| 0,0,0,0,0,1,1,0,0,
	| 0,0,1,0,0,0,0,0,0,
	| 0,0,0,0,1,0,0,0,0,
	| 0,0,0,0,0,1,0,0,0,
	| 0,0,1,0,0,0,1,0,0,
	| 0,1,0,0,0,0,0,0,1,
	| 0,1,0,0,0,0,0,0,1,
	| 0,0,1,0,1,0,0,0,0,
	| 0,0,0,0,0,1,0,0,0,
	| 0,0,1,0,0,0,0,1,0,
	| 0,0,1,0,0,0,0,0,0,
	| 0,0,0,0,0,0,0,0,1,
	| 0,0,0,0,0,1,0,0,1,
	| 0,0,0,1,0,0,0,0,0,
	| 0,0,0,1,0,0,0,0,0,
	| 0,0,0,0,0,0,0,1,0,
	| 0,0,0,0,0,2,0,0,0,
	| 0,0,0,0,1,0,0,0,0,
	| 0,0,0,0,0,0,1,0,0,
	| 0,0,1,0,0,0,0,0,1,
	| 0,0,0,0,0,0,0,0,1,
	| 0,0,1,0,0,0,0,0,0,
	| 0,1,0,0,0,0,0,0,0,
	| 0,1,0,0,0,0,0,0,0,
	| 0,0,0,0,0,0,0,1,0,
	| 0,0,1,0,0,0,0,1,0,
	| 0,0,0,0,1,0,0,0,0,
	| 0,0,0,0,0,0,0,0,1,
	| 0,1,0,0,0,0,0,0,1,
	| 0,0,1,0,0,1,0,0,0,
	| 0,0,0,1,0,0,0,0,0,
	| 0,0,0,0,0,1,0,0,1,
	| 0,1,0,0,0,0,0,0,0,
	| 0,0,0,0,0,0,1,0,0,
	| 0,0,1,0,0,1,0,0,0,
	| 0,0,1,0,0,0,0,0,0,
	| 0,0,1,0,0,0,0,0,0,
	| 1,0,0,0,0,0,0,1,0,
	| 0,0,0,0,0,0,0,0,0, |];

% SumOfsreq = 86;

nResources = 8;
mastery = [| false,false,true,false,false,true,false,false,true,
	| false,false,false,true,true,true,false,false,false,
	| false,false,true,true,true,true,false,false,false,
	| true,true,true,false,false,false,true,true,true,
	| false,true,true,false,false,false,true,true,true,
	| false,true,true,false,false,false,false,false,false,
	| false,false,false,false,false,false,false,false,true,
	| false,true,true,false,false,false,false,false,false, |];

nPrecs = 112;
pred = [1,1,1,2,2,3,3,4,4,4,5,5,5,6,6,7,7,8,8,9,9,10,10,10,11,11,12,12,12,13,13,13,14,14,14,15,15,16,16,16,17,17,18,18,19,19,20,21,21,22,22,22,23,23,23,24,24,24,25,26,26,27,28,28,29,29,30,30,31,32,32,33,33,34,34,35,35,36,36,37,38,38,38,39,40,40,41,42,42,42,43,43,43,44,44,45,46,47,48,49,50,51,52,53,54,55,56,57,58,59,60,61];
succ = [2,3,4,5,6,10,7,9,19,8,11,12,31,25,32,27,59,28,15,17,16,37,43,29,43,13,42,15,24,59,20,14,18,30,38,26,16,53,21,40,33,30,41,56,46,24,22,36,45,52,54,23,34,37,46,28,38,32,38,41,35,34,30,39,57,48,49,44,43,58,40,49,35,36,56,36,55,61,39,39,44,61,48,58,59,60,45,50,44,47,46,47,56,51,54,48,50,49,51,53,55,52,55,54,60,58,57,61,60,62,62,62];

nUnrels = 1073;
unpred = [2,2,2,2,2,2,2,2,2,2,2,3,3,3,3,3,3,3,3,3,3,3,3,3,3,3,3,3,3,3,3,3,3,3,3,3,3,3,3,3,3,3,3,3,4,4,4,4,4,4,4,4,4,4,4,4,4,4,4,4,4,4,4,4,4,4,4,5,5,5,5,5,5,5,5,5,5,5,6,6,6,6,6,6,6,6,6,6,6,6,6,6,6,6,6,6,6,6,6,6,6,6,6,6,6,6,6,6,6,6,6,6,6,6,6,6,6,6,6,7,7,7,7,7,7,7,7,7,7,7,7,7,7,7,7,7,7,7,7,7,7,7,7,7,7,7,7,7,7,7,7,7,7,7,7,7,7,7,7,7,7,7,7,8,8,8,8,8,8,8,8,8,8,8,8,8,8,8,8,8,8,8,8,8,8,8,8,8,8,8,8,8,9,9,9,9,9,9,9,9,9,9,9,9,9,9,9,9,9,9,9,9,9,9,9,9,9,9,9,9,9,9,10,10,10,10,10,10,10,10,10,10,10,10,10,10,10,10,10,10,10,10,10,10,10,10,10,10,10,10,10,10,10,10,11,11,11,11,11,11,11,11,11,11,11,11,11,11,11,11,11,11,12,12,12,12,12,12,12,12,12,12,12,12,12,12,12,12,12,12,12,13,13,13,13,13,13,13,13,13,13,13,13,13,13,13,13,13,13,13,14,14,14,14,14,14,14,14,14,14,14,14,14,14,14,14,14,14,14,14,14,14,14,14,14,14,14,14,14,15,15,15,15,15,15,15,15,15,15,15,15,15,15,15,15,15,15,15,15,15,15,15,15,15,15,15,16,16,16,16,16,16,16,16,16,16,16,16,16,16,16,16,16,16,16,16,16,16,16,16,16,16,16,16,16,16,17,17,17,17,17,17,17,17,17,17,17,17,17,17,17,17,17,17,17,17,17,17,17,17,17,17,17,17,17,18,18,18,18,18,18,18,18,18,18,18,18,18,18,18,18,18,18,18,18,18,18,18,18,18,18,18,18,18,18,18,18,19,19,19,19,19,19,19,19,19,19,19,19,19,19,19,19,19,19,19,19,19,20,20,20,20,20,20,20,20,20,20,20,20,20,20,20,20,20,20,20,20,20,20,20,20,20,21,21,21,21,21,21,21,21,21,21,21,21,21,21,21,21,21,21,21,21,21,21,21,21,21,21,21,21,21,21,22,22,22,22,22,22,22,22,22,22,22,22,22,22,22,22,22,22,22,22,22,22,22,22,23,23,23,23,23,23,23,23,23,23,23,23,23,23,23,23,23,23,23,23,23,23,23,23,23,23,24,24,24,24,24,24,24,24,24,24,24,24,24,24,24,24,24,24,24,25,25,25,25,25,25,25,25,25,25,25,25,25,25,25,25,25,25,25,25,25,25,25,25,25,25,26,26,26,26,26,26,26,26,26,26,26,26,26,26,26,26,26,26,26,26,26,26,26,27,27,27,27,27,27,27,27,27,27,27,27,27,27,27,27,27,27,27,27,27,27,27,27,27,27,28,28,28,28,28,28,28,28,28,28,28,28,28,28,28,28,28,28,28,28,28,28,29,29,29,29,29,29,29,29,29,29,29,29,29,29,29,29,29,29,29,29,29,29,29,29,30,30,30,30,30,30,30,30,30,30,30,30,30,30,30,30,30,30,30,30,30,30,31,31,31,31,31,31,31,31,31,31,31,31,31,31,31,31,31,32,32,32,32,32,32,32,32,32,32,32,32,32,32,32,32,32,32,32,32,32,32,32,32,32,33,33,33,33,33,33,33,33,33,33,33,33,33,33,33,33,33,33,34,34,34,34,34,34,34,34,34,34,34,34,34,34,34,34,34,34,34,34,35,35,35,35,35,35,35,35,35,35,35,35,35,35,35,35,35,35,35,35,36,36,36,36,36,36,36,36,36,36,36,36,36,36,36,36,36,36,36,36,36,37,37,37,37,37,37,37,37,37,37,37,37,37,37,37,37,37,37,37,37,37,38,38,38,38,38,38,38,38,38,38,38,38,38,38,39,39,39,39,39,39,39,39,39,39,39,39,39,39,39,39,39,39,39,39,40,40,40,40,40,40,40,40,40,40,40,40,40,40,40,40,40,40,40,41,41,41,41,41,41,41,41,41,41,41,41,41,42,42,42,42,42,42,42,42,43,43,43,43,43,43,44,44,44,44,44,44,44,44,44,44,44,45,45,45,45,45,45,45,45,45,45,46,46,46,46,46,46,46,46,46,46,46,47,47,47,47,47,47,47,47,47,47,48,48,48,48,48,48,48,48,49,49,49,49,49,49,49,49,49,50,50,50,50,50,50,50,50,51,51,51,51,51,51,52,52,52,52,52,52,53,53,53,53,53,53,54,54,54,54,54,54,55,55,55,55,56,56,56,57,57,57,58,58,59,59,60];
unsucc = [3,4,7,8,9,10,17,19,27,29,33,4,5,6,8,9,11,12,13,14,15,16,17,18,19,20,21,22,23,24,25,26,28,30,31,32,33,35,38,40,41,42,44,45,5,6,7,10,11,12,13,14,18,20,22,23,25,27,29,31,34,37,42,43,47,56,57,6,7,8,9,10,17,19,25,27,29,33,7,8,9,10,11,12,13,14,15,16,17,18,19,20,21,22,23,24,26,27,28,29,30,31,33,34,35,36,37,39,41,42,43,45,46,47,49,50,53,56,57,8,9,10,11,12,13,14,15,16,17,18,19,20,21,22,23,24,25,26,28,29,30,31,32,33,35,37,38,40,41,42,43,44,45,46,47,48,49,50,51,52,53,54,55,9,10,11,12,13,14,17,18,19,20,22,23,24,25,27,29,31,32,33,34,37,38,42,43,46,47,50,56,57,10,11,12,13,14,15,18,19,20,22,23,24,25,26,27,28,29,31,32,34,37,38,41,42,43,46,47,50,56,57,11,12,13,14,15,16,17,18,19,20,21,22,23,24,25,26,27,28,30,31,32,33,34,35,36,38,40,41,42,44,45,59,12,15,16,17,19,21,24,25,26,27,28,29,31,32,33,35,40,42,13,14,17,18,19,20,22,23,25,27,29,31,33,34,37,43,46,56,57,15,16,17,19,21,24,25,26,27,28,29,31,32,33,35,40,42,43,47,15,16,17,19,20,21,22,23,24,25,26,27,28,29,31,32,33,34,35,36,37,39,40,42,43,46,47,50,59,17,18,19,20,22,23,24,25,27,28,29,30,31,32,33,34,37,38,42,43,44,46,47,49,50,56,57,17,18,19,20,22,23,24,25,26,27,28,29,30,31,32,33,34,35,37,38,41,42,43,44,46,47,49,50,56,57,18,19,20,21,22,23,24,25,26,27,28,29,31,32,34,37,38,40,41,42,43,45,46,47,48,50,56,57,59,19,20,21,22,23,24,25,26,27,28,29,30,31,32,33,34,35,36,37,38,39,40,42,43,44,46,47,49,50,53,54,59,20,21,22,23,25,26,27,29,31,33,34,35,36,37,41,42,43,45,47,56,57,21,24,25,26,27,28,29,30,31,32,33,35,38,40,41,42,43,44,45,47,48,49,51,53,59,22,23,24,25,26,27,28,29,30,31,32,33,34,35,37,38,40,41,42,43,44,46,47,49,50,53,54,56,57,59,24,25,26,27,28,29,30,31,32,33,35,38,40,41,42,43,44,45,47,48,49,51,53,59,24,25,26,27,28,29,30,31,32,33,35,38,40,41,42,43,44,45,47,48,49,51,52,53,54,59,25,26,27,29,31,33,34,35,36,37,41,42,43,45,46,47,50,56,57,26,27,28,29,30,31,32,33,34,35,36,37,39,40,41,42,43,45,46,47,49,50,53,56,57,59,27,28,29,30,31,32,33,34,37,38,40,42,43,44,46,47,49,50,53,54,56,57,59,28,29,30,31,32,33,35,37,38,40,41,42,43,44,45,46,47,48,49,50,51,52,53,54,55,59,29,31,32,33,34,35,36,37,38,40,41,42,43,45,46,47,48,50,56,57,59,61,30,31,32,33,34,35,36,37,38,39,40,41,42,43,44,45,46,47,49,50,53,54,56,59,31,32,33,34,35,36,37,38,39,40,41,42,43,45,46,47,48,50,56,57,59,61,32,33,34,35,36,37,38,39,40,41,42,44,45,48,51,52,59,33,34,35,36,37,38,39,41,42,43,44,45,46,47,48,49,50,51,52,53,54,55,56,57,61,34,37,38,40,41,42,43,44,45,46,47,48,50,51,52,56,57,59,35,37,38,40,41,42,43,44,45,46,47,48,49,50,51,52,53,54,55,59,37,38,40,41,42,43,44,45,46,47,48,49,50,51,52,53,54,56,57,59,37,38,40,41,42,43,44,45,46,47,48,49,50,51,52,53,54,55,56,57,59,38,40,41,42,43,44,45,46,47,48,49,50,51,52,53,54,55,56,57,59,61,39,40,41,42,43,45,46,47,49,50,53,56,57,59,40,41,42,43,44,45,46,47,48,49,50,51,52,53,54,55,56,57,59,61,41,42,43,44,45,46,47,48,49,50,51,52,53,54,55,56,57,58,61,42,43,44,46,47,49,50,53,54,56,57,59,61,43,45,46,48,56,57,59,61,44,45,48,51,52,59,45,46,47,48,49,50,53,56,57,59,61,46,47,49,50,53,54,56,57,59,61,47,48,49,51,52,53,54,56,57,59,61,48,50,51,52,55,56,57,58,59,61,49,50,53,54,56,57,59,61,50,51,52,55,56,57,58,59,61,51,52,53,54,56,57,59,61,53,54,56,57,59,61,53,54,56,57,59,61,55,56,57,58,59,61,55,56,57,58,59,61,56,57,59,61,58,59,60,58,59,60,59,61,60,61,61];

USEFUL_RES = [{},
	{1,2,3,4,5,7},
	{4,5,6,8},
	{1,4,5,7},
	{2,3},
	{1,4,5,7},
	{4,5,6,8},
	{1,3,4,5,6,8},
	{1,3,4,5,6,8},
	{1,3,4,5,6,7,8},
	{1,3,4,5,6,8},
	{1,3,4,5,6,8},
	{2,3,4,5},
	{4,5},
	{4,5,6,8},
	{2,3},
	{1,4,5,7},
	{4,5},
	{2,3},
	{1,2,3,4,5,7},
	{1,2,3},
	{4,5},
	{1,4,5,7},
	{1,2,3,4,5},
	{1,3,4,5,6,8},
	{2,3},
	{1,2,3},
	{1,3,4,5,6,8},
	{1,4,5,6,7,8},
	{1,4,5,6,7,8},
	{1,2,3,4,5,6,8},
	{1,2,3},
	{1,3,4,5,6,8},
	{1,3,4,5,6,8},
	{1,4,5,7},
	{1,2,3,4,5,7},
	{2,3},
	{2,3},
	{4,5},
	{1,2,3},
	{2,3},
	{4,5},
	{1,3,4,5,6,7,8},
	{1,4,5,7},
	{1,3,4,5,6,8},
	{4,5,6,8},
	{4,5,6,8},
	{4,5},
	{1,3,4,5,6,8},
	{2,3},
	{1,4,5,7},
	{1,4,5,6,7,8},
	{1,2,3,4,5,6,8},
	{2,3},
	{1,2,3,4,5,7},
	{4,5,6,8},
	{4,5},
	{1,2,3,4,5,6,8},
	{1,3,4,5,6,8},
	{1,3,4,5,6,8},
	{4,5},
	{}];

POTENTIAL_ACT = [{2,4,6,8,9,10,11,12,17,20,21,23,24,25,27,28,29,30,31,32,33,34,35,36,40,43,44,45,49,51,52,53,55,58,59,60},
	{2,5,13,16,19,20,21,24,26,27,31,32,36,37,38,40,41,50,53,54,55,58},
	{2,5,8,9,10,11,12,13,16,19,20,21,24,25,26,27,28,31,32,33,34,36,37,38,40,41,43,45,49,50,53,54,55,58,59,60},
	{2,3,4,6,7,8,9,10,11,12,13,14,15,17,18,20,22,23,24,25,28,29,30,31,33,34,35,36,39,42,43,44,45,46,47,48,49,51,52,53,55,56,57,58,59,60,61},
	{2,3,4,6,7,8,9,10,11,12,13,14,15,17,18,20,22,23,24,25,28,29,30,31,33,34,35,36,39,42,43,44,45,46,47,48,49,51,52,53,55,56,57,58,59,60,61},
	{3,7,8,9,10,11,12,15,25,28,29,30,31,33,34,43,45,46,47,49,52,53,56,58,59,60},
	{2,4,6,10,17,20,23,29,30,35,36,43,44,51,52,55},
	{3,7,8,9,10,11,12,15,25,28,29,30,31,33,34,43,45,46,47,49,52,53,56,58,59,60}];
